320
60.0 181.0 
48.0 103.0 
66.0 180.0 
66.0 180.0 
84.0 163.0 
66.0 132.0 
66.0 132.0 
66.0 132.0 
66.0 181.0 
66.0 181.0 
66.0 190.0 
60.0 126.0 
60.0 181.0 
48.0 103.0 
42.0 113.0 
72.0 128.0 
84.0 163.0 
66.0 132.0 
66.0 132.0 
66.0 132.0 
66.0 132.0 
66.0 181.0 
66.0 181.0 
66.0 190.0 
48.0 104.0 
126.0 162.0 
60.0 181.0 
48.0 99.0 
48.0 103.0 
72.0 128.0 
36.0 110.0 
66.0 132.0 
66.0 132.0 
66.0 132.0 
66.0 132.0 
66.0 181.0 
66.0 181.0 
66.0 190.0 
108.0 138.0 
108.0 138.0 
108.0 191.0 
66.0 132.0 
60.0 181.0 
48.0 103.0 
42.0 113.0 
72.0 128.0 
36.0 110.0 
48.0 90.0 
66.0 132.0 
66.0 132.0 
66.0 132.0 
66.0 181.0 
66.0 181.0 
66.0 190.0 
60.0 126.0 
84.0 157.0 
66.0 132.0 
60.0 181.0 
48.0 103.0 
42.0 113.0 
72.0 128.0 
72.0 160.0 
36.0 110.0 
66.0 132.0 
66.0 132.0 
66.0 181.0 
66.0 181.0 
66.0 190.0 
108.0 193.0 
66.0 132.0 
66.0 132.0 
60.0 181.0 
36.0 110.0 
48.0 99.0 
48.0 103.0 
72.0 128.0 
36.0 110.0 
66.0 132.0 
66.0 132.0 
66.0 132.0 
66.0 132.0 
66.0 132.0 
66.0 181.0 
66.0 181.0 
66.0 190.0 
84.0 157.0 
126.0 162.0 
60.0 181.0 
48.0 103.0 
72.0 128.0 
36.0 110.0 
66.0 132.0 
66.0 132.0 
66.0 132.0 
66.0 132.0 
66.0 132.0 
66.0 181.0 
66.0 181.0 
66.0 190.0 
60.0 126.0 
120.0 175.0 
60.0 181.0 
48.0 99.0 
48.0 103.0 
42.0 113.0 
66.0 132.0 
84.0 163.0 
66.0 132.0 
66.0 132.0 
66.0 132.0 
66.0 181.0 
66.0 181.0 
66.0 190.0 
60.0 126.0 
60.0 181.0 
48.0 99.0 
42.0 113.0 
48.0 103.0 
72.0 128.0 
36.0 110.0 
48.0 90.0 
66.0 132.0 
66.0 132.0 
66.0 132.0 
66.0 181.0 
66.0 181.0 
66.0 190.0 
84.0 157.0 
126.0 162.0 
60.0 181.0 
48.0 103.0 
42.0 113.0 
66.0 180.0 
36.0 110.0 
66.0 132.0 
66.0 132.0 
66.0 132.0 
66.0 132.0 
66.0 181.0 
66.0 181.0 
66.0 190.0 
60.0 126.0 
72.0 160.0 
60.0 181.0 
48.0 99.0 
72.0 173.0 
48.0 103.0 
66.0 132.0 
66.0 180.0 
66.0 132.0 
66.0 132.0 
66.0 132.0 
66.0 132.0 
66.0 132.0 
66.0 132.0 
66.0 132.0 
66.0 181.0 
66.0 181.0 
66.0 190.0 
108.0 138.0 
108.0 191.0 
108.0 191.0 
72.0 160.0 
60.0 181.0 
72.0 173.0 
48.0 103.0 
66.0 132.0 
66.0 180.0 
84.0 163.0 
66.0 132.0 
66.0 132.0 
66.0 132.0 
66.0 132.0 
66.0 181.0 
66.0 181.0 
66.0 190.0 
48.0 104.0 
108.0 191.0 
108.0 191.0 
60.0 181.0 
36.0 110.0 
66.0 132.0 
66.0 180.0 
84.0 163.0 
66.0 132.0 
66.0 132.0 
66.0 132.0 
66.0 132.0 
66.0 181.0 
66.0 181.0 
66.0 190.0 
108.0 138.0 
108.0 191.0 
72.0 202.0 
60.0 181.0 
48.0 99.0 
42.0 113.0 
48.0 103.0 
66.0 132.0 
36.0 110.0 
66.0 132.0 
66.0 132.0 
66.0 132.0 
66.0 132.0 
66.0 132.0 
66.0 132.0 
66.0 181.0 
66.0 181.0 
66.0 190.0 
108.0 138.0 
108.0 191.0 
108.0 191.0 
60.0 181.0 
36.0 110.0 
66.0 132.0 
66.0 180.0 
66.0 180.0 
84.0 163.0 
66.0 132.0 
66.0 132.0 
66.0 132.0 
66.0 132.0 
66.0 181.0 
66.0 181.0 
66.0 190.0 
48.0 104.0 
108.0 191.0 
108.0 191.0 
72.0 160.0 
60.0 181.0 
72.0 173.0 
48.0 103.0 
42.0 113.0 
66.0 180.0 
66.0 132.0 
84.0 163.0 
66.0 132.0 
66.0 132.0 
66.0 132.0 
66.0 132.0 
66.0 181.0 
66.0 181.0 
66.0 190.0 
48.0 104.0 
108.0 191.0 
108.0 191.0 
72.0 160.0 
60.0 181.0 
72.0 173.0 
48.0 103.0 
72.0 173.0 
66.0 132.0 
66.0 180.0 
36.0 110.0 
66.0 132.0 
66.0 132.0 
66.0 132.0 
66.0 132.0 
66.0 132.0 
66.0 132.0 
66.0 181.0 
66.0 181.0 
66.0 190.0 
48.0 104.0 
108.0 191.0 
108.0 191.0 
72.0 160.0 
60.0 181.0 
36.0 110.0 
48.0 99.0 
48.0 103.0 
42.0 113.0 
66.0 180.0 
36.0 110.0 
66.0 132.0 
66.0 132.0 
66.0 132.0 
66.0 132.0 
66.0 132.0 
66.0 132.0 
66.0 181.0 
66.0 181.0 
66.0 190.0 
108.0 191.0 
108.0 191.0 
72.0 160.0 
60.0 181.0 
48.0 99.0 
48.0 103.0 
66.0 132.0 
84.0 163.0 
66.0 132.0 
66.0 132.0 
66.0 132.0 
66.0 132.0 
66.0 181.0 
66.0 181.0 
66.0 190.0 
48.0 104.0 
108.0 191.0 
108.0 191.0 
72.0 160.0 
60.0 181.0 
72.0 173.0 
48.0 103.0 
66.0 132.0 
66.0 180.0 
36.0 110.0 
66.0 132.0 
66.0 132.0 
66.0 132.0 
66.0 132.0 
66.0 132.0 
66.0 132.0 
66.0 181.0 
66.0 181.0 
66.0 190.0 
48.0 104.0 
108.0 191.0 
108.0 191.0 

0 4 8 13 51 56 63 
0 3 30 62 63 
0 4 8 13 40 62 63 
0 4 8 13 40 62 63 
0 4 8 13 40 53 63 
0 4 8 13 33 63 
0 4 8 13 33 63 
0 4 8 13 33 63 
0 4 8 13 53 62 63 
0 4 8 13 53 62 63 
0 2 8 13 53 62 63 
0 3 6 16 61 63 
0 4 8 13 51 56 63 
0 3 30 62 63 
0 3 16 62 63 
0 3 16 30 62 63 
0 4 8 13 40 53 63 
0 4 8 13 33 63 
0 4 8 13 33 63 
0 4 8 13 33 63 
0 4 8 13 33 63 
0 4 8 13 53 62 63 
0 4 8 13 53 62 63 
0 2 8 13 53 62 63 
0 2 9 14 63 
0 3 6 10 15 36 61 63 
0 4 8 13 51 56 63 
0 3 31 56 63 
0 3 30 62 63 
0 3 16 30 62 63 
0 3 24 62 63 
0 4 8 13 33 63 
0 4 8 13 33 63 
0 4 8 13 33 63 
0 4 8 13 33 63 
0 4 8 13 53 62 63 
0 4 8 13 53 62 63 
0 2 8 13 53 62 63 
0 2 9 14 20 41 63 
0 2 9 14 20 41 63 
0 2 9 14 20 53 62 63 
0 4 8 13 33 63 
0 4 8 13 51 56 63 
0 3 30 62 63 
0 3 16 62 63 
0 3 16 30 62 63 
0 3 24 62 63 
0 3 6 24 63 
0 4 8 13 33 63 
0 4 8 13 33 63 
0 4 8 13 33 63 
0 4 8 13 53 62 63 
0 4 8 13 53 62 63 
0 2 8 13 53 62 63 
0 3 6 16 61 63 
0 3 6 10 16 61 63 
0 4 8 13 33 63 
0 4 8 13 51 56 63 
0 3 30 62 63 
0 3 16 62 63 
0 3 16 30 62 63 
0 4 8 13 18 24 63 
0 3 24 62 63 
0 4 8 13 33 63 
0 4 8 13 33 63 
0 4 8 13 53 62 63 
0 4 8 13 53 62 63 
0 2 8 13 53 62 63 
0 2 9 14 41 53 62 63 
0 4 8 13 33 63 
0 4 8 13 33 63 
0 4 8 13 51 56 63 
0 3 24 62 63 
0 3 31 56 63 
0 3 30 62 63 
0 3 16 30 62 63 
0 3 24 62 63 
0 4 8 13 33 63 
0 4 8 13 33 63 
0 4 8 13 33 63 
0 4 8 13 33 63 
0 4 8 13 33 63 
0 4 8 13 53 62 63 
0 4 8 13 53 62 63 
0 2 8 13 53 62 63 
0 3 6 10 16 61 63 
0 3 6 10 15 36 61 63 
0 4 8 13 51 56 63 
0 3 30 62 63 
0 3 16 30 62 63 
0 3 24 62 63 
0 4 8 13 33 63 
0 4 8 13 33 63 
0 4 8 13 33 63 
0 4 8 13 33 63 
0 4 8 13 33 63 
0 4 8 13 53 62 63 
0 4 8 13 53 62 63 
0 2 8 13 53 62 63 
0 3 6 16 61 63 
0 3 6 10 15 43 61 63 
0 4 8 13 51 56 63 
0 3 31 56 63 
0 3 30 62 63 
0 3 16 62 63 
0 4 8 13 33 63 
0 4 8 13 40 53 63 
0 4 8 13 33 63 
0 4 8 13 33 63 
0 4 8 13 33 63 
0 4 8 13 53 62 63 
0 4 8 13 53 62 63 
0 2 8 13 53 62 63 
0 3 6 16 61 63 
0 4 8 13 51 56 63 
0 3 31 56 63 
0 3 16 62 63 
0 3 30 62 63 
0 3 16 30 62 63 
0 3 24 62 63 
0 3 6 24 63 
0 4 8 13 33 63 
0 4 8 13 33 63 
0 4 8 13 33 63 
0 4 8 13 53 62 63 
0 4 8 13 53 62 63 
0 2 8 13 53 62 63 
0 3 6 10 16 61 63 
0 3 6 10 15 36 61 63 
0 4 8 13 51 56 63 
0 3 30 62 63 
0 3 16 62 63 
0 4 8 13 40 62 63 
0 3 24 62 63 
0 4 8 13 33 63 
0 4 8 13 33 63 
0 4 8 13 33 63 
0 4 8 13 33 63 
0 4 8 13 53 62 63 
0 4 8 13 53 62 63 
0 2 8 13 53 62 63 
0 3 6 16 61 63 
0 4 8 13 18 24 63 
0 4 8 13 51 56 63 
0 3 31 56 63 
0 4 8 13 40 56 63 
0 3 30 62 63 
0 4 8 13 33 63 
0 4 8 13 40 62 63 
0 4 8 13 33 63 
0 4 8 13 33 63 
0 4 8 13 33 63 
0 4 8 13 33 63 
0 4 8 13 33 63 
0 4 8 13 33 63 
0 4 8 13 33 63 
0 4 8 13 53 62 63 
0 4 8 13 53 62 63 
0 2 8 13 53 62 63 
0 2 9 14 20 41 63 
0 2 9 14 20 53 62 63 
0 2 9 14 20 53 62 63 
0 4 8 13 18 24 63 
0 4 8 13 51 56 63 
0 4 8 13 40 56 63 
0 3 30 62 63 
0 4 8 13 33 63 
0 4 8 13 40 62 63 
0 4 8 13 40 53 63 
0 4 8 13 33 63 
0 4 8 13 33 63 
0 4 8 13 33 63 
0 4 8 13 33 63 
0 4 8 13 53 62 63 
0 4 8 13 53 62 63 
0 2 8 13 53 62 63 
0 2 9 14 63 
0 2 9 14 20 53 62 63 
0 2 9 14 20 53 62 63 
0 4 8 13 51 56 63 
0 4 8 13 63 
0 4 8 13 33 63 
0 4 8 13 40 62 63 
0 4 8 13 40 53 63 
0 4 8 13 33 63 
0 4 8 13 33 63 
0 4 8 13 33 63 
0 4 8 13 33 63 
0 4 8 13 53 62 63 
0 4 8 13 53 62 63 
0 2 8 13 53 62 63 
0 2 9 14 20 41 63 
0 2 9 14 20 53 62 63 
0 4 8 12 24 51 56 63 
0 4 8 13 51 56 63 
0 3 31 56 63 
0 3 16 62 63 
0 3 30 62 63 
0 4 8 13 33 63 
0 3 24 62 63 
0 4 8 13 33 63 
0 4 8 13 33 63 
0 4 8 13 33 63 
0 4 8 13 33 63 
0 4 8 13 33 63 
0 4 8 13 33 63 
0 4 8 13 53 62 63 
0 4 8 13 53 62 63 
0 2 8 13 53 62 63 
0 2 9 14 20 41 63 
0 2 9 14 20 53 62 63 
0 2 9 14 20 53 62 63 
0 4 8 13 51 56 63 
0 4 8 13 63 
0 4 8 13 33 63 
0 4 8 13 40 62 63 
0 4 8 13 40 62 63 
0 4 8 13 40 53 63 
0 4 8 13 33 63 
0 4 8 13 33 63 
0 4 8 13 33 63 
0 4 8 13 33 63 
0 4 8 13 53 62 63 
0 4 8 13 53 62 63 
0 2 8 13 53 62 63 
0 2 9 14 63 
0 2 9 14 20 53 62 63 
0 2 9 14 20 53 62 63 
0 4 8 13 18 24 63 
0 4 8 13 51 56 63 
0 4 8 13 40 56 63 
0 3 30 62 63 
0 3 16 62 63 
0 4 8 13 40 62 63 
0 4 8 13 33 63 
0 4 8 13 40 53 63 
0 4 8 13 33 63 
0 4 8 13 33 63 
0 4 8 13 33 63 
0 4 8 13 33 63 
0 4 8 13 53 62 63 
0 4 8 13 53 62 63 
0 2 8 13 53 62 63 
0 2 9 14 63 
0 2 9 14 20 53 62 63 
0 2 9 14 20 53 62 63 
0 4 8 13 18 24 63 
0 4 8 13 51 56 63 
0 4 8 13 40 56 63 
0 3 30 62 63 
0 4 8 13 40 56 63 
0 4 8 13 33 63 
0 4 8 13 40 62 63 
0 3 24 62 63 
0 4 8 13 33 63 
0 4 8 13 33 63 
0 4 8 13 33 63 
0 4 8 13 33 63 
0 4 8 13 33 63 
0 4 8 13 33 63 
0 4 8 13 53 62 63 
0 4 8 13 53 62 63 
0 2 8 13 53 62 63 
0 2 9 14 63 
0 2 9 14 20 53 62 63 
0 2 9 14 20 53 62 63 
0 4 8 13 18 24 63 
0 4 8 13 51 56 63 
0 3 24 62 63 
0 3 31 56 63 
0 3 30 62 63 
0 3 16 62 63 
0 4 8 13 40 62 63 
0 3 24 62 63 
0 4 8 13 33 63 
0 4 8 13 33 63 
0 4 8 13 33 63 
0 4 8 13 33 63 
0 4 8 13 33 63 
0 4 8 13 33 63 
0 4 8 13 53 62 63 
0 4 8 13 53 62 63 
0 2 8 13 53 62 63 
0 2 9 14 20 53 62 63 
0 2 9 14 20 53 62 63 
0 4 8 13 18 24 63 
0 4 8 13 51 56 63 
0 3 31 56 63 
0 3 30 62 63 
0 4 8 13 33 63 
0 4 8 13 40 53 63 
0 4 8 13 33 63 
0 4 8 13 33 63 
0 4 8 13 33 63 
0 4 8 13 33 63 
0 4 8 13 53 62 63 
0 4 8 13 53 62 63 
0 2 8 13 53 62 63 
0 2 9 14 63 
0 2 9 14 20 53 62 63 
0 2 9 14 20 53 62 63 
0 4 8 13 18 24 63 
0 4 8 13 51 56 63 
0 4 8 13 40 56 63 
0 3 30 62 63 
0 4 8 13 33 63 
0 4 8 13 40 62 63 
0 3 24 62 63 
0 4 8 13 33 63 
0 4 8 13 33 63 
0 4 8 13 33 63 
0 4 8 13 33 63 
0 4 8 13 33 63 
0 4 8 13 33 63 
0 4 8 13 53 62 63 
0 4 8 13 53 62 63 
0 2 8 13 53 62 63 
0 2 9 14 63 
0 2 9 14 20 53 62 63 
0 2 9 14 20 53 62 63 
